n = 19;
lu = [|-242, 137
      |-15, 98
      |-205, 212
      |9, 223
      |-191, 4
      |-359, -93
      |-311, 62
      |-194, 212
      |-331, -193
      |173, 360
      |84, 271
      |-337, -124
      |-278, -2
      |-95, 327
      |-250, 230
      |-271, 309
      |-34, 38
      |-114, -11
      |-335, -226|];
